DIMACS2
10 20 42 79 134 63 156 50 55 93 71
p edge 160 431
e 0 122 1.0
e 0 33 1.0
e 1 40 1.0
e 1 63 11.0
e 2 65 2.0
e 2 143 1.0
e 3 105 2.0
e 3 60 1.0
e 4 57 1.0
e 4 16 1.0
e 5 31 1.0
e 5 46 1.0
e 6 72 1.0
e 6 98 1.0
e 7 68 2.0
e 7 153 1.0
e 8 143 1.0
e 8 37 1.0
e 9 146 1.0
e 9 97 2.0
e 10 73 1.0
e 10 57 1.0
e 11 50 30.0
e 11 24 1.0
e 12 136 1.0
e 12 126 1.0
e 13 108 2.0
e 13 88 1.0
e 14 78 1.0
e 14 113 1.0
e 15 32 1.0
e 15 106 3.0
e 16 58 1.0
e 16 12 2.0
e 17 131 1.0
e 17 92 1.0
e 18 64 2.0
e 18 13 2.0
e 19 14 1.0
e 19 41 1.0
e 20 124 16.0
e 20 23 22.0
e 20 11 20.0
e 20 42 39.0
e 20 89 41.0
e 20 90 19.0
e 20 109 3.0
e 20 24 19.0
e 20 111 37.0
e 20 99 46.0
e 20 37 5.0
e 20 26 33.0
e 20 151 4.0
e 20 141 17.0
e 21 77 1.0
e 21 147 2.0
e 22 122 1.0
e 22 156 45.0
e 23 75 1.0
e 23 21 1.0
e 24 48 1.0
e 24 106 1.0
e 25 86 2.0
e 25 158 1.0
e 26 112 1.0
e 26 150 1.0
e 27 86 1.0
e 27 64 1.0
e 28 38 1.0
e 28 152 1.0
e 29 21 1.0
e 30 67 1.0
e 30 22 1.0
e 31 150 1.0
e 31 73 1.0
e 32 79 2.0
e 32 21 1.0
e 33 88 5.0
e 33 28 1.0
e 34 131 1.0
e 34 149 2.0
e 35 107 2.0
e 35 75 1.0
e 36 72 1.0
e 36 148 1.0
e 37 134 22.0
e 37 46 1.0
e 38 75 1.0
e 38 124 1.0
e 39 101 1.0
e 39 138 2.0
e 40 25 1.0
e 40 149 1.0
e 41 72 1.0
e 41 17 1.0
e 42 15 23.0
e 42 108 28.0
e 42 137 10.0
e 42 19 39.0
e 42 104 18.0
e 42 80 11.0
e 42 154 4.0
e 42 93 23.0
e 42 100 26.0
e 42 16 40.0
e 42 70 19.0
e 42 151 31.0
e 42 9 36.0
e 42 145 30.0
e 42 134 33.0
e 43 2 1.0
e 43 158 1.0
e 44 136 1.0
e 44 78 1.0
e 45 66 1.0
e 45 19 1.0
e 46 21 1.0
e 46 88 3.0
e 47 103 1.0
e 47 33 1.0
e 48 77 1.0
e 48 94 1.0
e 49 104 1.0
e 49 122 1.0
e 50 22 1.0
e 50 39 46.0
e 50 20 37.0
e 50 63 6.0
e 50 93 48.0
e 50 27 5.0
e 50 118 40.0
e 50 23 27.0
e 50 104 38.0
e 50 47 16.0
e 50 128 47.0
e 50 111 4.0
e 50 116 41.0
e 51 30 1.0
e 51 61 1.0
e 52 17 1.0
e 52 114 1.0
e 53 110 1.0
e 53 114 1.0
e 54 49 1.0
e 55 88 43.0
e 55 124 22.0
e 55 146 9.0
e 55 50 11.0
e 55 101 46.0
e 55 71 27.0
e 55 120 31.0
e 55 10 31.0
e 55 117 38.0
e 55 27 49.0
e 55 125 30.0
e 55 20 40.0
e 55 67 11.0
e 55 34 7.0
e 55 35 48.0
e 55 74 24.0
e 56 93 37.0
e 56 153 1.0
e 57 77 1.0
e 57 69 1.0
e 58 28 2.0
e 58 52 2.0
e 59 23 2.0
e 59 0 1.0
e 60 64 1.0
e 60 85 1.0
e 61 93 14.0
e 61 41 2.0
e 62 148 1.0
e 62 68 2.0
e 63 79 22.0
e 63 119 29.0
e 63 98 6.0
e 63 32 9.0
e 63 135 14.0
e 63 144 20.0
e 63 151 26.0
e 63 70 17.0
e 63 71 43.0
e 63 152 24.0
e 63 54 44.0
e 63 8 22.0
e 63 12 17.0
e 63 29 25.0
e 64 138 1.0
e 64 43 2.0
e 65 138 1.0
e 65 22 1.0
e 66 76 1.0
e 66 96 1.0
e 67 95 1.0
e 67 157 1.0
e 68 17 1.0
e 68 145 1.0
e 69 47 1.0
e 69 122 1.0
e 70 45 1.0
e 70 58 2.0
e 71 91 5.0
e 71 50 11.0
e 71 102 25.0
e 71 155 29.0
e 71 118 45.0
e 71 14 6.0
e 71 83 42.0
e 71 90 19.0
e 71 20 25.0
e 71 135 25.0
e 71 76 17.0
e 71 119 23.0
e 71 134 47.0
e 72 139 3.0
e 72 52 1.0
e 73 130 1.0
e 73 134 7.0
e 74 110 1.0
e 74 106 1.0
e 75 36 1.0
e 75 73 1.0
e 76 122 1.0
e 76 43 1.0
e 77 18 2.0
e 77 65 1.0
e 78 126 2.0
e 78 96 2.0
e 79 134 7.0
e 79 27 14.0
e 79 154 25.0
e 79 53 37.0
e 79 34 43.0
e 79 137 26.0
e 79 35 22.0
e 79 61 17.0
e 79 93 40.0
e 79 8 5.0
e 79 48 6.0
e 79 71 4.0
e 79 141 4.0
e 80 1 1.0
e 80 86 2.0
e 81 13 1.0
e 81 52 1.0
e 82 31 1.0
e 82 55 9.0
e 83 109 3.0
e 83 30 2.0
e 84 119 2.0
e 84 26 1.0
e 85 110 1.0
e 85 13 1.0
e 86 138 2.0
e 86 63 41.0
e 87 123 2.0
e 87 18 1.0
e 88 115 5.0
e 88 40 2.0
e 89 49 1.0
e 89 10 1.0
e 90 115 1.0
e 90 69 1.0
e 91 78 2.0
e 91 21 1.0
e 92 121 1.0
e 92 79 47.0
e 93 130 14.0
e 93 92 22.0
e 93 7 22.0
e 93 100 7.0
e 93 6 40.0
e 93 37 17.0
e 93 39 21.0
e 93 55 9.0
e 93 4 4.0
e 93 43 31.0
e 93 120 37.0
e 94 95 1.0
e 94 17 1.0
e 95 12 1.0
e 95 68 1.0
e 96 106 1.0
e 96 89 1.0
e 97 134 45.0
e 97 3 2.0
e 98 138 1.0
e 98 106 1.0
e 99 107 2.0
e 99 112 3.0
e 100 143 1.0
e 100 17 1.0
e 101 142 1.0
e 101 130 2.0
e 102 146 3.0
e 102 28 1.0
e 103 126 2.0
e 103 105 1.0
e 104 156 28.0
e 104 32 1.0
e 105 50 37.0
e 105 7 2.0
e 106 94 1.0
e 106 112 1.0
e 107 143 2.0
e 107 3 2.0
e 108 14 1.0
e 108 147 1.0
e 109 38 3.0
e 109 28 2.0
e 110 86 2.0
e 110 11 3.0
e 111 60 2.0
e 111 39 3.0
e 112 142 1.0
e 112 59 1.0
e 113 150 1.0
e 113 133 2.0
e 114 49 1.0
e 114 57 1.0
e 115 94 1.0
e 115 36 1.0
e 116 67 2.0
e 116 11 2.0
e 117 123 2.0
e 117 108 1.0
e 118 48 2.0
e 118 158 1.0
e 119 18 2.0
e 119 81 1.0
e 120 136 2.0
e 120 123 1.0
e 121 153 1.0
e 121 38 1.0
e 122 118 1.0
e 122 102 1.0
e 123 149 1.0
e 123 69 1.0
e 124 69 1.0
e 124 72 1.0
e 125 142 2.0
e 125 20 44.0
e 126 107 1.0
e 126 83 3.0
e 127 0 1.0
e 127 62 1.0
e 128 25 1.0
e 128 29 1.0
e 129 134 46.0
e 129 20 31.0
e 130 33 1.0
e 130 96 1.0
e 131 22 1.0
e 131 122 1.0
e 132 71 28.0
e 132 62 2.0
e 133 135 2.0
e 133 103 3.0
e 134 109 36.0
e 134 83 29.0
e 134 155 42.0
e 134 137 43.0
e 134 125 30.0
e 134 120 45.0
e 134 93 38.0
e 134 44 20.0
e 134 45 16.0
e 135 49 3.0
e 135 10 2.0
e 136 105 1.0
e 136 41 2.0
e 137 86 1.0
e 137 20 44.0
e 138 31 1.0
e 138 113 1.0
e 139 117 1.0
e 139 79 46.0
e 140 31 1.0
e 140 52 1.0
e 141 133 1.0
e 141 2 1.0
e 142 106 1.0
e 142 4 1.0
e 143 50 44.0
e 143 122 1.0
e 144 42 9.0
e 144 61 1.0
e 145 106 1.0
e 145 94 1.0
e 146 93 5.0
e 146 116 2.0
e 147 17 1.0
e 147 134 47.0
e 148 126 1.0
e 148 6 1.0
e 149 57 1.0
e 149 111 1.0
e 150 133 2.0
e 150 65 1.0
e 151 91 1.0
e 151 62 2.0
e 152 9 1.0
e 152 22 1.0
e 153 66 1.0
e 153 91 1.0
e 154 81 1.0
e 154 115 1.0
e 155 76 1.0
e 155 147 1.0
e 156 8 45.0
e 156 136 3.0
e 156 121 1.0
e 156 125 42.0
e 156 79 39.0
e 156 84 47.0
e 156 58 23.0
e 156 42 6.0
e 156 71 19.0
e 156 127 13.0
e 156 44 10.0
e 156 45 26.0
e 156 155 46.0
e 156 50 26.0
e 156 128 18.0
e 157 59 1.0
e 157 114 1.0
e 158 71 48.0
e 158 15 2.0
e 159 29 1.0
e 159 31 2.0
